14
1 0 11
2 0 19
3 0 29
3 1 28
3 2 6
4 1 10
4 2 26
5 1 6
5 3 29
5 4 9
6 2 28
6 3 10
6 4 6
7 0 7
7 3 26
7 5 31
8 2 7
8 4 12
8 5 21
9 0 33
9 2 11
9 3 5
9 6 36
10 3 34
10 5 35
10 7 19
11 1 7
11 2 30
11 4 4
11 5 1
11 6 6
11 8 23
11 9 5
11 10 34
12 0 30
12 3 33
12 5 26
12 9 36
12 11 2
13 2 26
13 3 23
13 4 27
13 6 11
13 7 31
13 8 27
13 10 9
13 11 30
